1
11
55
1 2 9437
1 3 9526
1 4 4882
1 5 1882
1 6 1460
1 7 13923
1 8 7462
1 9 4606
1 10 7304
1 11 3720
2 3 476
2 4 6805
2 5 10722
2 6 10417
2 7 5834
2 8 2728
2 9 9710
2 10 3422
2 11 8960
3 4 4422
3 5 10858
3 6 6555
3 7 5585
3 8 3082
3 9 13636
3 10 2914
3 11 11964
4 5 5833
4 6 5528
4 7 11001
4 8 4073
4 9 7935
4 10 3748
4 11 6779
5 6 350
5 7 15323
5 8 8636
5 9 5317
5 10 8415
5 11 4669
6 7 15110
6 8 8327
6 9 5324
6 10 8107
6 11 4611
7 8 8072
7 9 10852
7 10 8497
7 11 11055
8 9 8945
8 10 481
8 11 7949
9 10 9125
9 11 1155
10 11 8082